/* Objective function */
max: ;

/* Constraints */
R1: +x35 <= 0;
R2: +x36 <= 0;
R3: +x16 <= 0;
R4: +x16 <= 0;
R5: +x10 <= 0;
R6: +x11 <= 0;
R7: +x2 <= 0;
R8: +x6 <= 0;
+x37 +x38 <= 0;
R10: +x7 <= 0;
R11: +x17 <= 0;
R12: +x3 <= 0;
R13: +x1 <= 0;
R14: +x5 <= 0;
R15: +x1 <= 0;
R16: +x11 <= 0;
R17: +x7 <= 0;
R18: +x17 <= 0;
R19: +x1 <= 0;
R20: +x6 <= 0;
R21: +x5 <= 0;
R22: +x2 <= 0;
R23: +x11 <= 0;
R24: +x6 <= 0;
+x12 +x13 <= 0;
R26: +x6 <= 0;
+x12 +x13 <= 0;
R28: +x12 <= 0;
R29: +x13 <= 0;
R30: +x1 <= 0;
R31: +x1 <= 0;
R32: +x1 <= 0;
R33: +x19 <= 0;
+x18 +x19 <= 0;
R35: +x18 <= 0;
R36: +x5 <= 0;
R37: +x5 <= 0;
R38: +x39 <= 0;
+x20 +x21 <= 0;
R40: +x21 <= 0;
R41: +x20 <= 0;
R42: +x22 <= 0;
R43: +x14 <= 0;
+x8 +x14 <= 0;
R45: +x8 <= 0;
R46: +x8 <= 0;
R47: +x8 <= 0;
R48: +x14 <= 0;
R49: +x22 <= 0;
+x23 +x24 <= 0;
R51: +x24 <= 0;
R52: +x25 <= 0;
R53: +x23 <= 0;
R54: +x25 <= 0;
R55: +x2 <= 0;
+x15 +x26 <= 0;
R57: +x2 <= 0;
+x26 +x40 <= 0;
+x15 +x27 <= 0;
R60: +x27 <= 0;
R61: +x15 <= 0;
R62: +x41 <= 0;
R63: +x2 <= 0;
R64: +x42 <= 0;
R65: +x44 <= 0;
R66: +x43 <= 0;
R67: +x45 <= 0;
R68: +x28 <= 0;
R69: +x28 <= 0;
R70: +x29 <= 0;
R71: +x29 <= 0;
R72: +x46 <= 0;
R73: +x3 <= 0;
R74: +x3 <= 0;
R75: +x3 <= 0;
R76: +x3 <= 0;
R77: +x7 <= 0;
R78: +x30 <= 0;
+x4 +x30 +x31 +x32 +x33 <= 0;
R80: +x4 <= 0;
R81: +x31 <= 0;
R82: +x4 <= 0;
R83: +x4 <= 0;
R84: +x32 <= 0;
R85: +x33 <= 0;
R86: +x4 <= 0;
R87: +x7 <= 0;
R88: +x9 <= 0;
R89: +x34 <= 0;
R90: +x9 <= 0;
R91: +x9 <= 1;
R92: +x10 <= 0;
+x9 +x34 <= 0;
R94: +x10 <= 0;
R95: +x35 >= 0;
R96: +x25 >= 0;
R97: +x25 >= 0;
R98: +x16 >= 0;
R99: +x10 >= 0;
R100: +x22 >= 0;
R101: +x2 >= 0;
R102: +x6 >= 0;
R103: +x29 >= 0;
R104: +x28 >= 0;
+x7 +x17 >= 0;
R106: +x3 >= 0;
R107: +x1 >= 0;
R108: +x5 >= 0;
R109: +x2 >= 0;
R110: +x29 >= 0;
R111: +x28 >= 0;
R112: +x3 >= 0;
R113: +x2 >= 0;
R114: +x1 >= 0;
R115: +x22 >= 0;
R116: +x10 >= 0;
R117: +x6 >= 0;
R118: +x6 >= 0;
+x12 +x13 >= 0;
R120: +x13 >= 0;
R121: +x12 >= 0;
+x12 +x13 >= 0;
R123: +x1 >= 0;
R124: +x1 >= 0;
+x18 +x19 >= 0;
R126: +x19 >= 0;
R127: +x1 >= 0;
R128: +x18 >= 0;
R129: +x5 >= 0;
R130: +x39 >= 0;
+x20 +x21 >= 0;
R132: +x5 >= 0;
R133: +x21 >= 0;
R134: +x20 >= 0;
+x8 +x14 >= 0;
R136: +x14 >= 0;
R137: +x11 >= 0;
R138: +x8 >= 0;
R139: +x8 >= 0;
R140: +x8 >= 0;
R141: +x14 >= 0;
R142: +x11 >= 0;
R143: +x36 >= 0;
R144: +x24 >= 0;
+x23 +x24 >= 0;
R146: +x23 >= 0;
R147: +x36 >= 0;
R148: +x2 >= 0;
R149: +x26 >= 0;
+x15 +x27 >= 0;
R151: +x2 >= 0;
+x26 +x40 >= 0;
R153: +x40 >= 0;
R154: +x26 >= 0;
R155: +x2 >= 0;
R156: +x41 >= 0;
R157: +x38 >= 0;
R158: +x43 >= 0;
R159: +x42 >= 0;
R160: +x44 >= 0;
R161: +x45 >= 0;
R162: +x38 >= 0;
R163: +x37 >= 0;
R164: +x37 >= 0;
R165: +x3 >= 0;
R166: +x46 >= 0;
R167: +x3 >= 0;
R168: +x3 >= 0;
R169: +x3 >= 0;
R170: +x7 >= 0;
R171: +x30 >= 0;
R172: +x7 >= 0;
+x4 +x30 >= 0;
+x30 +x31 >= 0;
+x4 +x30 >= 0;
R176: +x4 >= 0;
R177: +x32 >= 0;
R178: +x33 >= 0;
R179: +x4 >= 0;
+x4 +x31 +x32 +x33 >= 0;
R181: +x9 >= 0;
R182: +x34 >= 1;
R183: +x9 >= 0;
R184: +x9 >= 0;
+x9 +x34 >= 0;
R186: +x10 >= 0;
R187: +x10 >= 0;
R188: +x1 >= 0;
R189: +x2 >= 0;
R190: +x3 >= 0;
R191: +x4 >= 0;
R192: +x5 >= 0;
R193: +x6 >= 0;
R194: +x7 >= 0;
R195: +x8 >= 0;
R196: +x9 >= 0;
R197: +x10 >= 0;
R198: +x11 >= 0;
R199: +x12 >= 0;
R200: +x13 >= 0;
R201: +x14 >= 0;
R202: +x15 >= 0;
R203: +x16 >= 0;
R204: +x17 >= 0;
R205: +x18 >= 0;
R206: +x19 >= 0;
R207: +x20 >= 0;
R208: +x21 >= 0;
R209: +x22 >= 0;
R210: +x23 >= 0;
R211: +x24 >= 0;
R212: +x25 >= 0;
R213: +x26 >= 0;
R214: +x27 >= 0;
R215: +x28 >= 0;
R216: +x29 >= 0;
R217: +x30 >= 0;
R218: +x31 >= 0;
R219: +x32 >= 0;
R220: +x33 >= 0;
R221: +x34 >= 0;
R222: +x35 >= 0;
R223: +x36 >= 0;
R224: +x37 >= 0;
R225: +x38 >= 0;
R226: +x39 >= 0;
R227: +x40 >= 0;
R228: +x41 >= 0;
R229: +x42 >= 0;
R230: +x43 >= 0;
R231: +x44 >= 0;
R232: +x45 >= 0;
R233: +x46 >= 0;
